% seed = 0

mint = 32;
% maxt = 149;

nActs = 62;
dur = [0,5,3,2,4,1,2,4,2,3,1,1,1,2,3,2,3,2,2,2,2,3,3,2,3,4,2,1,2,2,3,1,3,2,2,3,2,2,1,4,4,1,5,3,1,2,2,5,3,3,2,2,3,2,2,1,2,2,1,5,6,0];

nSkills = 12;
sreq = [| 0,0,0,0,0,0,0,0,0,0,0,0,
	| 0,0,1,0,0,0,0,0,0,0,0,0,
	| 0,0,0,0,0,1,0,0,0,0,1,0,
	| 0,0,1,0,1,0,0,0,1,0,0,0,
	| 0,0,0,0,1,0,0,0,0,0,0,0,
	| 0,0,1,0,0,1,0,0,0,0,1,0,
	| 0,0,0,0,0,0,1,0,0,0,2,0,
	| 0,0,0,0,1,0,0,0,0,0,1,0,
	| 0,0,1,0,0,0,0,0,1,0,0,0,
	| 0,0,0,0,0,1,0,1,0,0,0,1,
	| 0,0,0,0,0,1,0,0,1,1,0,0,
	| 0,0,0,0,0,0,0,0,0,0,1,0,
	| 0,0,0,0,0,2,0,0,0,0,0,1,
	| 0,0,0,0,0,0,0,0,0,0,0,1,
	| 0,0,0,0,0,0,0,0,0,0,0,1,
	| 0,0,1,0,0,0,0,0,0,0,0,0,
	| 1,0,0,0,0,0,0,0,0,0,1,0,
	| 0,0,0,0,0,0,0,0,0,0,1,0,
	| 0,0,0,0,0,1,0,0,0,0,1,0,
	| 0,0,1,0,0,0,0,0,0,0,0,0,
	| 0,0,2,0,0,0,0,0,0,1,0,0,
	| 0,0,0,0,1,0,0,0,1,0,1,0,
	| 0,0,0,0,0,0,0,0,0,0,2,0,
	| 1,0,0,0,0,0,0,0,0,0,0,0,
	| 0,0,1,0,1,0,0,0,0,1,0,0,
	| 0,0,1,0,0,0,0,0,0,0,1,1,
	| 0,0,0,0,0,0,0,0,2,0,1,0,
	| 0,0,0,0,0,0,0,1,0,1,0,0,
	| 1,0,1,0,0,0,0,0,0,1,0,0,
	| 0,0,0,0,0,0,0,0,1,0,0,0,
	| 0,0,0,0,0,0,0,0,0,0,1,0,
	| 0,0,0,1,0,0,0,0,1,0,0,1,
	| 0,0,1,0,0,0,0,0,1,0,0,0,
	| 0,0,1,0,0,0,0,0,0,1,1,0,
	| 0,0,1,0,0,0,0,0,1,0,0,0,
	| 0,0,0,0,0,0,0,0,0,0,0,1,
	| 0,0,0,0,1,0,0,0,0,2,0,0,
	| 0,0,0,0,0,0,0,0,1,0,0,0,
	| 0,0,0,0,0,0,0,1,0,0,1,0,
	| 0,0,0,0,1,0,0,1,0,0,1,0,
	| 0,0,0,0,1,0,0,0,0,0,0,0,
	| 0,0,1,0,0,0,0,0,0,0,0,1,
	| 0,0,1,0,0,0,0,0,1,0,0,1,
	| 0,0,1,1,0,0,0,0,0,0,0,0,
	| 0,0,1,0,0,0,0,0,0,0,0,0,
	| 0,1,0,0,0,1,0,0,0,0,0,0,
	| 0,0,0,0,0,0,0,0,0,0,2,0,
	| 0,0,0,0,0,0,1,0,0,0,0,0,
	| 0,0,1,0,0,1,1,0,0,0,0,0,
	| 0,0,0,0,0,0,0,0,0,0,1,1,
	| 0,0,2,0,0,0,0,0,0,0,0,0,
	| 0,0,0,0,0,0,0,0,0,1,0,0,
	| 1,0,1,0,0,0,0,0,0,0,0,0,
	| 0,0,0,0,0,0,0,0,1,0,0,0,
	| 0,0,1,0,0,0,0,0,0,0,0,0,
	| 0,0,0,1,1,0,0,0,0,0,0,0,
	| 0,0,0,0,0,0,0,0,1,0,0,1,
	| 0,0,1,0,0,0,0,0,0,1,1,0,
	| 0,0,2,0,0,0,0,1,0,0,0,0,
	| 0,0,0,0,0,0,0,1,2,0,0,0,
	| 1,0,1,0,0,0,0,0,0,1,0,0,
	| 0,0,0,0,0,0,0,0,0,0,0,0, |];

% SumOfsreq = 123;

nResources = 10;
mastery = [| false,true,true,false,false,false,false,true,true,true,true,true,
	| false,false,false,false,true,true,false,false,false,true,true,true,
	| false,false,true,false,false,false,false,false,false,false,true,true,
	| false,false,false,false,false,true,true,true,true,false,false,false,
	| false,false,true,false,false,false,false,false,false,false,false,false,
	| true,true,true,true,true,true,false,false,false,false,false,false,
	| false,false,false,false,false,false,false,false,false,false,false,true,
	| false,false,false,false,false,false,false,false,false,true,true,true,
	| false,false,false,false,false,false,true,true,true,false,false,false,
	| false,false,false,false,false,false,false,true,true,false,false,false, |];

nPrecs = 112;
pred = [1,1,1,2,2,2,3,3,3,4,4,4,5,6,6,6,7,7,7,8,9,9,10,11,11,11,12,12,12,13,13,14,14,15,15,15,16,17,17,18,18,18,19,20,20,20,21,21,21,22,22,23,23,23,24,24,25,25,25,26,26,27,27,28,28,29,30,30,31,31,32,32,33,33,34,34,35,36,37,37,38,38,38,39,40,40,40,41,42,42,43,44,45,46,47,48,48,49,50,50,51,52,53,53,54,55,56,57,58,59,60,61];
succ = [2,3,4,10,6,7,61,5,8,11,13,35,38,9,26,15,28,19,12,20,25,14,58,17,27,16,32,39,16,50,31,27,54,18,44,23,43,57,59,36,21,30,24,45,29,48,42,43,22,37,32,43,47,40,31,40,37,29,50,33,28,41,30,34,48,32,52,46,55,39,38,40,53,47,44,45,56,50,51,48,41,46,47,49,51,46,56,51,52,55,52,61,58,55,49,49,54,60,57,53,57,56,61,54,58,59,60,60,59,62,62,62];

nUnrels = 1150;
unpred = [2,2,2,2,2,2,2,2,2,3,3,3,3,3,3,3,3,3,3,3,3,3,3,3,3,3,3,3,3,3,3,3,3,3,3,3,3,3,3,3,3,3,3,3,3,4,4,4,4,4,4,4,4,4,4,4,4,4,4,4,4,4,4,4,4,4,4,4,4,4,4,4,4,4,4,4,4,5,5,5,5,5,5,5,5,5,5,5,5,5,5,5,5,5,5,5,5,5,5,5,5,5,5,5,5,5,5,5,5,5,5,5,5,5,5,5,5,5,5,5,5,5,5,6,6,6,6,6,6,6,6,6,6,6,6,6,6,7,7,7,7,7,7,7,7,7,7,7,7,7,7,7,7,7,7,7,7,7,7,7,7,7,8,8,8,8,8,8,8,8,8,8,8,8,8,8,8,8,8,8,8,8,8,8,8,8,8,8,8,8,8,8,8,8,8,8,9,9,9,9,9,9,9,9,9,9,9,9,9,9,9,9,9,9,9,9,9,9,9,9,9,9,10,10,10,10,10,10,10,10,10,10,10,10,10,10,10,10,10,10,10,10,10,10,10,10,10,10,10,10,10,10,10,10,10,10,10,10,10,10,10,10,10,10,10,10,10,10,10,10,10,11,11,11,11,11,11,11,11,11,11,11,11,11,11,11,11,11,11,11,11,11,11,11,11,11,11,11,11,11,11,11,11,11,11,11,11,12,12,12,12,12,12,12,12,12,12,12,12,12,12,12,12,12,12,12,12,12,12,12,12,12,12,12,12,12,12,12,12,13,13,13,13,13,13,13,13,13,13,13,13,13,13,13,13,13,13,13,13,13,13,13,13,13,13,13,13,13,13,13,13,13,13,13,13,14,14,14,14,14,14,14,14,14,14,14,14,14,14,14,14,14,14,14,14,14,14,14,14,14,14,14,14,14,14,14,14,14,14,15,15,15,15,15,15,15,15,15,15,15,15,15,15,15,15,16,16,16,16,16,16,16,16,16,16,16,16,16,16,16,16,16,16,16,16,16,16,16,16,16,16,16,16,16,16,16,16,16,16,16,16,16,16,16,16,16,17,17,17,17,17,17,17,17,17,17,17,17,17,17,17,17,17,17,17,17,17,17,17,17,17,17,17,17,17,17,17,17,17,17,17,17,17,17,17,17,17,18,18,18,18,18,18,18,18,18,18,18,18,18,18,18,18,19,19,19,19,19,19,19,19,19,19,19,19,19,19,19,19,19,19,19,19,19,19,19,19,19,19,19,19,19,19,20,20,20,20,20,20,20,20,20,20,20,20,20,20,20,20,20,20,20,20,20,20,20,21,21,21,21,21,21,21,21,21,21,21,21,21,21,21,21,21,21,21,22,22,22,22,22,22,22,22,22,22,22,22,22,22,22,22,22,22,22,22,22,22,23,23,23,23,23,23,23,23,23,23,23,23,23,23,23,23,23,23,23,23,23,23,23,23,23,23,24,24,24,24,24,24,24,24,24,24,24,24,24,24,24,24,24,24,24,24,24,24,24,24,24,24,25,25,25,25,25,25,25,25,25,25,25,25,25,25,25,26,26,26,26,26,26,26,26,26,26,26,26,26,26,26,26,26,26,26,26,26,27,27,27,27,27,27,27,27,27,27,27,27,27,27,27,27,27,27,27,27,27,27,27,27,28,28,28,28,28,28,28,28,28,28,28,28,28,28,28,28,28,28,28,28,28,28,28,29,29,29,29,29,29,29,29,29,29,29,29,29,29,29,29,29,29,29,30,30,30,30,30,30,30,30,30,30,30,30,30,30,30,30,30,30,30,30,30,30,30,30,30,31,31,31,31,31,31,31,31,31,31,31,31,31,31,31,31,31,31,31,31,31,31,31,31,31,32,32,32,32,32,32,32,32,32,32,32,32,32,32,32,32,32,33,33,33,33,33,33,33,33,33,33,33,33,33,33,33,33,33,33,33,33,34,34,34,34,34,34,34,34,34,34,34,34,34,34,34,34,34,34,34,34,34,34,35,35,35,35,35,35,35,35,35,35,35,35,35,35,35,35,35,35,35,35,35,35,35,35,36,36,36,36,36,36,36,36,36,36,36,36,36,36,36,36,36,37,37,37,37,37,37,37,37,37,37,37,37,37,37,37,37,38,38,38,38,38,38,38,38,38,38,38,38,38,38,39,39,39,39,39,39,39,39,39,39,39,39,39,39,39,39,39,39,39,39,40,40,40,40,40,40,40,40,40,40,40,40,40,40,41,41,41,41,41,41,41,41,41,41,41,41,41,41,41,41,41,42,42,42,42,42,42,42,42,42,42,42,42,42,42,43,43,43,43,43,43,43,43,43,43,43,43,43,43,43,44,44,44,44,44,44,44,44,44,44,44,44,44,44,44,44,45,45,45,45,45,45,45,45,45,45,45,45,45,45,46,46,46,46,46,46,46,46,46,46,46,46,46,47,47,47,47,47,47,47,47,47,47,47,47,48,48,48,48,48,48,48,48,49,49,49,49,49,49,49,49,49,49,49,50,50,50,50,51,51,51,51,51,51,51,51,52,52,52,52,52,52,52,53,53,53,53,54,54,54,54,54,55,55,55,55,55,56,56,56,56,57,57,57,58,58,59,59,60];
unsucc = [3,4,5,8,11,13,17,20,35,4,6,7,9,10,11,12,13,14,15,16,17,18,19,21,22,23,24,25,26,27,28,30,31,33,34,35,36,37,39,42,43,44,50,52,53,5,6,7,8,9,10,12,14,15,18,19,20,21,22,23,24,25,26,28,29,32,33,34,36,37,38,40,42,44,45,47,48,6,7,8,9,10,11,12,13,14,15,16,17,18,19,20,21,22,23,24,25,26,27,28,29,30,31,32,33,34,35,36,37,39,40,42,43,44,45,48,50,52,53,54,56,58,61,7,8,10,11,12,13,16,17,19,20,24,31,35,39,8,9,10,11,13,14,15,17,18,20,21,22,23,25,26,27,29,30,33,35,36,37,42,50,53,9,10,11,12,13,14,15,16,17,18,19,21,22,23,24,25,26,27,28,30,31,33,34,35,36,37,39,42,43,44,50,52,53,61,10,11,12,13,15,16,17,18,19,20,21,22,23,24,26,28,31,33,34,35,36,39,42,43,44,45,11,12,13,14,15,16,17,18,19,20,21,22,23,24,25,26,27,28,29,30,31,32,33,34,35,36,37,38,39,40,41,42,43,44,45,46,47,48,49,50,51,52,53,54,55,56,57,60,61,12,13,14,15,18,19,20,21,22,23,24,25,26,28,29,31,32,33,34,35,36,37,38,39,40,42,44,45,47,48,49,50,53,54,58,61,13,14,15,17,18,19,20,21,22,23,24,25,26,27,28,29,30,31,33,34,35,36,37,42,44,45,48,50,53,54,58,61,14,15,16,17,18,19,20,21,22,23,24,25,26,27,28,29,30,32,33,34,35,36,37,38,40,41,42,43,44,45,46,47,48,51,52,56,15,16,17,18,19,20,21,22,23,24,25,26,28,29,31,32,33,34,35,36,37,38,39,40,42,43,44,45,47,48,49,50,53,61,16,17,19,20,24,25,26,27,28,29,31,33,34,35,39,45,17,18,19,20,21,22,23,24,25,26,27,28,29,30,31,32,33,34,35,36,37,38,39,40,41,42,44,45,46,47,48,49,50,51,53,54,55,57,58,59,61,18,19,20,21,22,23,24,25,26,27,28,29,30,31,32,33,34,35,36,37,38,39,40,41,42,43,44,45,46,47,48,49,50,51,52,53,54,55,56,58,61,19,20,23,24,25,26,27,28,29,31,33,34,35,39,44,45,20,21,22,23,25,26,27,28,29,30,32,33,34,35,36,37,38,41,42,43,44,45,47,48,50,52,53,54,58,61,21,22,23,24,25,26,27,28,30,31,33,34,35,36,37,39,42,43,44,50,52,53,61,23,24,25,26,27,28,29,30,31,33,34,35,36,39,44,45,50,53,61,23,24,25,26,27,28,29,30,31,33,34,35,36,39,42,43,44,45,50,52,53,61,24,25,26,27,28,29,30,31,32,33,34,35,36,37,38,39,41,42,44,45,48,50,53,54,58,61,25,26,27,28,29,30,32,33,34,35,36,37,38,41,42,43,44,45,47,48,50,52,53,54,58,61,26,27,28,30,31,33,34,35,36,39,42,43,44,45,52,27,29,30,31,32,35,36,37,38,39,40,41,42,43,46,50,51,52,55,56,57,28,29,31,32,33,34,35,36,37,38,39,40,42,43,44,45,47,48,49,50,53,54,58,61,29,30,31,32,33,35,36,37,38,39,40,41,42,43,46,47,50,51,52,53,55,56,57,30,31,33,34,35,36,37,39,42,43,44,45,48,50,52,53,54,58,61,31,32,33,34,35,36,37,38,39,40,41,42,43,44,45,47,48,49,50,51,53,54,57,58,61,32,33,34,35,36,37,38,40,41,42,43,44,45,46,47,48,50,51,52,53,54,56,57,58,61,33,34,35,36,37,39,42,43,44,45,48,50,52,53,54,58,61,34,35,36,37,38,39,40,41,42,43,44,45,46,48,50,51,52,55,56,57,35,36,37,38,39,40,41,42,43,46,47,48,49,50,51,52,53,54,55,56,57,60,36,37,38,39,40,41,42,43,44,45,46,47,48,49,50,51,52,53,54,55,57,58,59,61,37,38,39,40,41,42,43,44,45,46,47,48,49,51,52,55,56,38,39,40,41,42,43,44,45,46,47,50,52,53,55,56,61,39,40,42,43,44,45,48,50,52,53,54,56,58,61,40,41,42,43,44,45,46,47,48,50,51,52,53,54,55,56,57,58,59,61,41,42,43,44,45,47,48,49,50,52,53,54,58,61,42,43,44,45,46,47,48,49,50,52,53,54,55,56,58,59,61,43,44,45,46,47,48,49,50,51,53,54,57,58,61,44,45,46,47,48,49,50,51,53,54,55,57,58,59,61,45,46,47,48,49,50,51,52,53,54,55,56,57,58,59,60,46,47,48,49,50,51,52,53,54,55,56,57,60,61,47,48,49,50,51,52,53,54,56,57,58,60,61,48,50,51,52,53,54,55,56,57,58,59,61,50,51,52,53,55,56,57,61,50,51,52,53,54,55,56,57,58,59,61,51,52,55,56,52,53,54,55,56,58,59,61,53,54,55,57,58,59,61,55,56,57,60,55,56,57,60,61,56,57,58,60,61,57,58,59,61,58,59,61,60,61,60,61,61];

USEFUL_RES = [{},
	{1,3,5,6},
	{1,2,3,4,6,8},
	{1,2,3,4,5,6,9,10},
	{2,6},
	{1,2,3,4,5,6,8},
	{1,2,3,4,8,9},
	{1,2,3,6,8},
	{1,3,4,5,6,9,10},
	{1,2,3,4,6,7,8,9,10},
	{1,2,4,6,8,9,10},
	{1,2,3,8},
	{1,2,3,4,6,7,8},
	{1,2,3,7,8},
	{1,2,3,7,8},
	{1,3,5,6},
	{1,2,3,6,8},
	{1,2,3,8},
	{1,2,3,4,6,8},
	{1,3,5,6},
	{1,2,3,5,6,8},
	{1,2,3,4,6,8,9,10},
	{1,2,3,8},
	{6},
	{1,2,3,5,6,8},
	{1,2,3,5,6,7,8},
	{1,2,3,4,8,9,10},
	{1,2,4,8,9,10},
	{1,2,3,5,6,8},
	{1,4,9,10},
	{1,2,3,8},
	{1,2,3,4,6,7,8,9,10},
	{1,3,4,5,6,9,10},
	{1,2,3,5,6,8},
	{1,3,4,5,6,9,10},
	{1,2,3,7,8},
	{1,2,6,8},
	{1,4,9,10},
	{1,2,3,4,8,9,10},
	{1,2,3,4,6,8,9,10},
	{2,6},
	{1,2,3,5,6,7,8},
	{1,2,3,4,5,6,7,8,9,10},
	{1,3,5,6},
	{1,3,5,6},
	{1,2,4,6},
	{1,2,3,8},
	{4,9},
	{1,2,3,4,5,6,9},
	{1,2,3,7,8},
	{1,3,5,6},
	{1,2,8},
	{1,3,5,6},
	{1,4,9,10},
	{1,3,5,6},
	{2,6},
	{1,2,3,4,7,8,9,10},
	{1,2,3,5,6,8},
	{1,3,4,5,6,9,10},
	{1,4,9,10},
	{1,2,3,5,6,8},
	{}];

POTENTIAL_ACT = [{2,3,4,6,7,8,9,10,11,12,13,14,15,16,17,18,19,20,21,22,23,25,26,27,28,29,30,31,32,33,34,35,36,37,38,39,40,42,43,44,45,46,47,49,50,51,52,53,54,55,57,58,59,60,61},
	{3,4,5,6,7,8,10,11,12,13,14,15,17,18,19,21,22,23,25,26,27,28,29,31,32,34,36,37,39,40,41,42,43,46,47,49,50,52,56,57,58,61},
	{2,3,4,6,7,8,9,10,12,13,14,15,16,17,18,19,20,21,22,23,25,26,27,29,31,32,33,34,35,36,39,40,42,43,44,45,47,49,50,51,53,55,57,58,59,61},
	{3,4,6,7,9,10,11,13,19,22,27,28,30,32,33,35,38,39,40,43,46,48,49,54,57,59,60},
	{2,4,6,9,16,20,21,25,26,29,33,34,35,42,43,44,45,49,51,53,55,58,59,61},
	{2,3,4,5,6,8,9,10,11,13,16,17,19,20,21,22,24,25,26,29,32,33,34,35,37,40,41,42,43,44,45,46,49,51,53,55,56,58,59,61},
	{10,13,14,15,26,32,36,42,43,50,57},
	{3,6,7,8,10,11,12,13,14,15,17,18,19,21,22,23,25,26,27,28,29,31,32,34,36,37,39,40,42,43,47,50,52,57,58,61},
	{4,7,9,10,11,22,27,28,30,32,33,35,38,39,40,43,48,49,54,57,59,60},
	{4,9,10,11,22,27,28,30,32,33,35,38,39,40,43,54,57,59,60}];
